30
1 0 4
2 0 1
2 1 4
3 2 1
4 0 1
4 1 1
4 2 3
4 3 3
5 1 1
5 3 2
6 2 3
6 5 3
7 4 3
7 6 2
8 0 3
8 3 2
8 5 1
8 6 3
9 1 1
9 2 4
9 3 1
9 7 2
10 0 1
10 2 4
10 4 3
11 1 2
11 3 3
11 5 1
11 6 4
12 2 4
12 3 1
12 4 2
12 5 4
12 7 3
12 8 2
12 9 1
12 11 4
13 0 2
13 3 4
13 4 2
13 8 4
14 1 2
14 2 1
14 6 4
14 12 2
14 13 2
15 0 1
15 1 4
15 2 4
15 7 4
15 8 3
15 11 1
15 12 2
15 13 1
16 0 2
16 4 1
16 5 3
16 7 4
16 8 1
16 10 4
16 11 3
16 15 4
17 0 1
17 1 3
17 2 3
17 4 3
17 6 4
17 8 3
17 9 4
17 12 1
17 13 2
17 16 1
18 0 3
18 1 4
18 2 2
18 5 2
18 9 4
18 10 2
18 11 4
18 13 2
18 14 1
18 15 4
18 16 1
19 7 1
19 8 2
19 10 1
19 13 1
19 15 2
19 16 2
19 17 1
19 18 1
20 0 3
20 1 3
20 3 3
20 5 4
20 6 4
20 10 2
20 11 2
20 12 1
20 14 4
20 18 4
21 0 1
21 1 3
21 2 2
21 5 2
21 6 2
21 7 1
21 10 4
21 11 1
21 14 1
21 18 3
22 5 2
22 6 1
22 7 4
22 8 1
22 14 2
22 15 3
22 17 4
22 18 4
22 19 3
23 2 4
23 3 2
23 4 2
23 5 3
23 6 3
23 9 1
23 10 1
23 12 2
23 13 3
23 14 4
23 16 1
23 17 1
23 18 3
23 19 1
23 20 4
23 22 4
24 0 2
24 2 4
24 3 3
24 7 3
24 10 3
24 12 1
24 13 2
24 14 1
24 15 4
24 16 2
24 19 2
24 22 1
24 23 2
25 0 3
25 1 2
25 6 4
25 7 4
25 8 2
25 10 4
25 12 2
25 13 4
25 14 1
25 19 4
25 20 4
25 22 4
25 23 3
26 1 2
26 2 2
26 3 3
26 5 3
26 8 4
26 9 3
26 10 2
26 11 4
26 13 2
26 16 4
26 17 2
26 19 3
26 20 1
26 21 3
26 25 4
27 0 2
27 2 1
27 3 2
27 5 2
27 7 4
27 8 3
27 10 3
27 12 1
27 13 4
27 16 1
27 17 2
27 18 2
27 20 2
27 21 3
27 22 1
27 26 3
28 1 1
28 2 4
28 4 1
28 5 4
28 7 3
28 8 3
28 9 2
28 12 1
28 13 2
28 15 1
28 17 2
28 18 1
28 20 1
28 21 1
28 24 4
28 25 4
29 3 4
29 6 2
29 7 1
29 8 1
29 10 3
29 11 4
29 13 3
29 15 4
29 18 4
29 20 1
29 23 2
29 24 2
29 25 4
29 27 1
29 28 4
